Nb of jobs, Nb of Machines, Time seed, Machine seed, Upper bound, Lower bound
3,8,-1,-1,-1,-1
Times
87,2,39,30,41,26,50,44
75,14,41,70,94,69,71,21
46,1,40,23,10,65,48,37
Machines
5,8,1,4,3,7,6,2
4,7,3,8,2,1,5,6
1,5,8,2,3,6,4,7
